\ LP format - for model browsing. Use MPS format to capture full model detail.
Maximize
  2800 x_full + 2400 x_semi
Subject To
 R0: 20 x_full + 15 x_semi <= 3500
 R1: 1.2 x_full + 1.2 x_semi <= 6
Bounds
Generals
 x_full x_semi
End
